proyfinal/src/viki/013/experimentInOfficeAgust.take6.output/a630df14-710d-454e-9c0a-30239e14247f.als.dat
{'cnf.clauses': '118081',
 'cnf.totvars': '69608',
 'conflict literals': '11',
 'conflicts': '8',
 'decisions': '6574',
 'memused.mb': '15.26',
 'outcome': 'UNSAT',
 'propagations': '33863',
 'restarts': '1',
 'solver.msecs': 36,
 'task.msecs': 114}
