proyfinal/src/viki/013/experimentInOfficeAgust.take6.output/a630df14-710d-454e-9c0a-30239e14247f.als.out
Reading from standard input... Use '--help' for help.
============================[ Problem Statistics ]=============================
|                                                                             |
|  Number of variables:         69608                                         |
|  Number of clauses:          118081                                         |
|  Parse time:                   0.03 s                                       |
|                                                                             |
============================[ Search Statistics ]==============================
| Conflicts |          ORIGINAL         |          LEARNT          | Progress |
|           |    Vars  Clauses Literals |    Limit  Clauses Lit/Cl |          |
===============================================================================
===============================================================================
restarts              : 1
conflicts             : 8              (217 /sec)
decisions             : 6574           (0.00 % random) (178138 /sec)
propagations          : 33863          (917597 /sec)
conflict literals     : 11             (0.00 % deleted)
Memory used           : 15.26 MB
CPU time              : 0.036904 s

UNSATISFIABLE
